param W_CLASS:=
1 0.004024004252887599
2 -0.021916345525148075
3 0
4 -1.4158374567427991
5 -6.251928275470141
6 0.15808991600638023
7 -0.12207658784213848
8 -0.017226828288994557
9 0.004568259999849928
10 18.800772415602356
11 -18.800772415602356
12 18.800772415602356
13 -13.159834929482583
14 -8.127772168887562
15 -18.800772415602356
16 -10.25376637621386
17 -5.707717433172762
18 -18.800772415602356
19 -3.3612834969418683;

param B_CLASS:= -0.9616163026418008 ;